db/data/984952120234149428565769150286768.z3.out
sat
-------------------
616.646042626
